L=18;
no=10;
njo=[7,30,12,4,4,4,10,4,3,10];
djo=[28,8,23,26,24,12,12,37,31,21];
trab=[12,12,6,2,2,2,2,2,2,6,6,3,3,3,3,3,3,3,3,3,3,3,3,3,12,12,12,12,12,2,2,2,2,2,2,6,6,6,2,2,2,2,2,2,2,2,2,2,2,2,2,2,2,2,2,6,6,9,9,2,2,2,2,2,2,2,2,2,6,6,2,2,2,2,2,2,2,2,2,2,2,2,2,12,12,6,6,2,2,2,2,2,2,2,6,6,6,2,2,2,2,2,2,2,2,2,2,2,2,6,6,6,6,6,6,6,6,6,6,6,6,6,6,3,3,3,3,3,3,3,6,6,6,12,12,6,2,2,2,2,2,2,2,2,2,2,2,2,2,2,2,2,2,2,2,2,2,6,6,6,3,3,3,3,3,3,3,12,12,12,12,12,3,3,3,3,3,3,3,3,3,3,3,3,3,3,3,3,3,6,6,6,6,6,2,2,2,2,2,6,6,6,6,6,6,6,12,2,2,2,2,2,2,2,2,2,6,6,6,6,6,6];
nprec=28;
prec=[| 10, 38,
      | 12, 39,
      | 15, 40,
      | 17, 41,
      | 20, 42,
      | 22, 43,
      | 25, 44,
      | 27, 45,
      | 30, 46,
      | 32, 47,
      | 35, 48,
      | 37, 49,
      | 40, 50,
      | 43, 51,
      | 46, 52,
      | 49, 53,
      | 50, 54,
      | 51, 55,
      | 52, 56,
      | 53, 57,
      | 54, 58,
      | 71, 58,
      | 55, 59,
      | 56, 60,
      | 57, 61,
      | 76, 79,
      | 77, 82,
      | 78, 85 |];


%%%%%%%%%%%%%%%%%%%%%%%%%%%%%%%%%%%%%%%%%%%%%%%%%%%%%%%%%%%%%%%%%%%%%%
%10
%
%7   1   7   28  141
%12  12  6   2   2   2   2   2   2   6   6   3   3   3   3   3   3   3   3   3   3   3   3   3   12   12   12   12
%1   1   1   0   0
%1   2   2   0   0
%1   3   3   0   0
%1   4   4   0   0
%1   5   5   0   0
%1   6   6   0   0
%1   7   7   0   0
%
%30  8   37  8   30
%12  2   2   2   2   2   2   6
%2   1   8   0   0
%2   2   9   0   0
%2   3   10  0   1
%	3   1   38
%2   4   11  0   0
%2   5   12  0   1
%	3   2   39
%2   6   13  0   0
%2   7   14  0   0
%2   8   15  0   1
%	3   3   40
%2   9   16  0   0
%2   10  17  0   1
%	3   4   41
%2   11  18  0   0
%2   12  19  0   0
%2   13  20  0   1
%	3   5   42
%2   14  21  0   0
%2   15  22  0   1
%	3   6   43
%2   16  23  0   0
%2   17  24  0   0
%2   18  25  0   1
%	3   7   44
%2   19  26  0   0
%2   20  27  0   1
%	3   8   45
%2   21  28  0   0
%2   22  29  0   0
%2   23  30  0   1
%	3   9   46
%2   24  31  0   0
%2   25  32  0   1
%	3   10  47
%2   26  33  0   0
%2   27  34  0   0
%2   28  35  0   1
%	3   11  48
%2   29  36  0   0
%2   30  37  0   1
%	3   12  49
%
%12  38  49  23  76
%6   6   2   2   2   2   2   2   2   2   2   2   2   2   2   2   2   2   2   6   6   9   9
%3   1   38  1   0
%	2   3   10
%3   2   39  1  0
%	2   5   12
%3   3   40  1   1
%	2   8   15
%	4   1   50
%3   4   41  1   0
%	2   10  17
%3   5   42  1   0
%	2   13  20
%3   6   43  1   1
%	2   15  22
%	4   2   51
%3   7   44  1   0
%	2   18  25
%3   8   45  1   0
%	2   20  27
%3   9   46  1   1
%	2   23  30
%	4   3   52
%3   10  47  1   0
%	2   25  32
%3   11  48  1   0
%	2   28  35
%3   12  49  1   1
%	2   30  37
%	4   4   53
%
%4   50  53  26  80
%2   2   2   2   2   2   2   2   2   6   6   2   2   2   2   2   2   2   2   2   2   2   2   2   12   12
%4   1   50  1   1
%	3   3   40
%	5   1   54
%4   2   51  1   1
%	3   6   43
%	5   2   55
%4   3   52  1   1
%	3   9   46
%	5   3   56
%4   4   53  1   1
%	3   12  49
%	5   4   57
%
%4   54  57  24  68
%6   6   2   2   2   2   2   2   2   6   6   6   2   2   2   2   2   2   2   2   2   2   2   2
%5   1   54  1   1
%	4   1   50
%	6   1   58
%5   2   55  1   1
%	4   2   51
%	6   2   59
%5   3   56  1   1
%	4   3   52
%	6   3   60
%5   4   57  1   1
%	4   4   53
%	6   4   61
%
%4   58  61  12  72
%6   6   6   6   6   6   6   6   6   6   6   6
%6   1   58  2   0
%	5   1   54
%	7   10  71
%6   2   59  1   0
%	5   2   55
%6   3   60  1   0
%	5   3   56
%6   4   61  1   0
%	5   4   57
%
%10  62  71  12  51
%6   6   3   3   3   3   3   3   3   6   6   6
%7   1   62  0   0
%7   2   63  0   0
%7   3   64  0   0
%7   4   65  0   0
%7   5   66  0   0
%7   6   67  0   0
%7   7   68  0   0
%7   8   69  0   0
%7   9   70  0   0
%7   10  71  0   1
%        6   1   58
%
%4   72  75  37  147
%12  12  6   2   2   2   2   2   2   2   2   2   2   2   2   2   2   2   2   2   2   2   2   2   6   6   6   3   3   3   3   3   3   3   12   12   12
%8   1   72  0   0
%8   2   73  0   0
%8   3   74  0   0
%8   4   75  0   0
%
%3   76  78  31  127
%12  12  3   3   3   3   3   3   3   3   3   3   3   3   3   3   3   3   3   6   6   6   6   6   2   2   2   2   2   6  6
%9   1   76  0   1
%	10  1   79
%9   2   77  0   1
%	10  4   82
%9   3   78  0   1
%	10  7   85
%
%10  79  88  21  96
%6   6   6   6   6   12   2   2   2   2   2   2   2   2   2   6   6   6   6   6   6
%10  1   79  1   0
%	9   1   76
%10  2   80  0   0
%10  3   81  0   0
%10  4   82  1   0
%	9   2   77
%10  5   83  0   0
%10  6   84  0   0
%10  7   85  1   0
%	9   3   78
%10  8   86  0   0
%10  9   87  0   0
%10  10  88  0   0
%
%
%362
%
